NAME 
ROWS
 N  OBJ
 L  R0      
 L  R1      
 L  R2      
 E  R3      
 E  R4      
 E  R5      
 E  R6      
 E  R7      
COLUMNS
    MARKER    'MARKER'                 'INTORG'
    I0(4)     OBJ       148
    I0(4)     R0        45
    I0(4)     R1        87
    I0(4)     R2        -119
    I0(4)     R7        1
    I1(6)     OBJ       118
    I1(6)     R0        -64
    I1(6)     R1        -38
    I1(6)     R2        125
    I1(6)     R3        16
    I1(6)     R4        16
    I1(6)     R7        1
    MARKER    'MARKER'                 'INTEND'
    C2(6)     OBJ       2
    C2(6)     R0        1
    C2(6)     R1        -9
    C2(6)     R2        8
    C2(6)     R3        17
    C2(6)     R4        2
    C2(6)     R5        19
    C3(5)     OBJ       9
    C3(5)     R0        -4
    C3(5)     R1        -3
    C3(5)     R2        4
    C3(5)     R4        8
    C3(5)     R6        11
    C4(4)     OBJ       -4
    C4(4)     R0        -4
    C4(4)     R1        4
    C4(4)     R2        -6
    C4(4)     R5        11
    C5(1)     R3        1
    C6(1)     R4        1
    C7(1)     R5        1
    C8(1)     R6        1
    C9(1)     R7        1
RHS
    RHS1      R0        -3.1272727272727273e+01
    RHS1      R1        3.1272727272727273e+01
    RHS1      R2        -4.6909090909090907e+01
    RHS1      R3        90
    RHS1      R4        65
    RHS1      R5        86
    RHS1      R6        76
BOUNDS
 UP BND1      I0(4)     1
 UP BND1      I1(6)     1
ENDATA
